120
3593
60
0 2
0 5
0 6
0 7
0 9
0 11
0 12
0 13
0 14
0 15
0 17
0 18
0 19
0 20
0 24
0 25
0 26
0 27
0 28
0 29
0 30
0 33
0 35
0 36
0 38
0 40
0 45
0 46
0 48
0 50
0 51
0 53
0 55
0 58
0 59
0 61
0 62
0 63
0 66
0 68
0 70
0 72
0 73
0 74
0 75
0 76
0 77
0 79
0 80
0 82
0 86
0 88
0 90
0 93
0 95
0 96
0 106
0 111
0 112
0 117
1 2
1 3
1 4
1 5
1 8
1 9
1 10
1 12
1 13
1 14
1 15
1 17
1 20
1 22
1 24
1 25
1 26
1 32
1 33
1 34
1 41
1 42
1 44
1 48
1 49
1 51
1 53
1 54
1 55
1 56
1 60
1 62
1 64
1 65
1 67
1 68
1 69
1 70
1 72
1 74
1 75
1 79
1 80
1 84
1 85
1 88
1 89
1 90
1 91
1 92
1 94
1 99
1 100
1 101
1 103
1 104
1 107
1 110
1 111
1 112
1 117
1 119
2 4
2 7
2 9
2 10
2 11
2 12
2 14
2 16
2 17
2 18
2 23
2 24
2 25
2 26
2 29
2 30
2 31
2 32
2 35
2 38
2 43
2 44
2 46
2 47
2 51
2 54
2 55
2 56
2 60
2 65
2 67
2 70
2 72
2 74
2 75
2 79
2 81
2 82
2 84
2 85
2 86
2 88
2 89
2 90
2 92
2 93
2 94
2 95
2 96
2 97
2 98
2 100
2 102
2 103
2 111
2 112
2 117
2 118
2 119
3 8
3 9
3 11
3 13
3 14
3 16
3 17
3 18
3 19
3 20
3 21
3 22
3 26
3 27
3 28
3 32
3 33
3 34
3 35
3 37
3 38
3 41
3 42
3 43
3 45
3 46
3 48
3 53
3 57
3 60
3 61
3 62
3 63
3 64
3 65
3 69
3 70
3 74
3 78
3 80
3 83
3 86
3 87
3 91
3 94
3 95
3 97
3 99
3 104
3 106
3 107
3 108
3 109
3 111
3 114
3 115
3 116
4 5
4 6
4 7
4 9
4 10
4 11
4 13
4 17
4 19
4 22
4 23
4 25
4 29
4 30
4 32
4 33
4 35
4 36
4 37
4 39
4 42
4 43
4 48
4 49
4 50
4 51
4 52
4 53
4 54
4 55
4 59
4 61
4 62
4 65
4 66
4 68
4 71
4 74
4 75
4 78
4 79
4 83
4 87
4 88
4 93
4 94
4 95
4 96
4 97
4 99
4 102
4 104
4 105
4 110
4 111
4 112
4 113
4 118
5 7
5 8
5 10
5 13
5 18
5 19
5 21
5 22
5 23
5 26
5 28
5 29
5 30
5 34
5 36
5 38
5 40
5 42
5 43
5 44
5 47
5 48
5 49
5 51
5 52
5 55
5 56
5 57
5 60
5 63
5 64
5 65
5 66
5 70
5 71
5 74
5 76
5 77
5 78
5 79
5 81
5 85
5 89
5 95
5 98
5 100
5 101
5 106
5 108
5 109
5 110
5 115
5 117
5 118
6 7
6 8
6 9
6 12
6 13
6 14
6 20
6 21
6 22
6 23
6 24
6 28
6 29
6 32
6 33
6 34
6 35
6 36
6 37
6 39
6 40
6 41
6 42
6 43
6 45
6 47
6 49
6 52
6 53
6 54
6 55
6 56
6 57
6 58
6 60
6 63
6 65
6 69
6 72
6 76
6 79
6 81
6 85
6 87
6 90
6 91
6 93
6 95
6 97
6 99
6 100
6 101
6 102
6 103
6 105
6 106
6 111
6 113
6 115
6 116
6 118
7 8
7 9
7 11
7 13
7 14
7 15
7 16
7 18
7 19
7 21
7 23
7 24
7 25
7 26
7 28
7 33
7 36
7 41
7 42
7 45
7 47
7 48
7 51
7 53
7 55
7 58
7 60
7 61
7 62
7 63
7 64
7 65
7 66
7 67
7 70
7 71
7 72
7 73
7 74
7 76
7 77
7 78
7 79
7 80
7 81
7 82
7 83
7 85
7 86
7 88
7 90
7 91
7 92
7 93
7 95
7 97
7 98
7 99
7 100
7 102
7 103
7 107
7 108
7 112
7 113
7 115
7 117
7 118
7 119
8 16
8 17
8 18
8 19
8 20
8 21
8 22
8 24
8 25
8 26
8 27
8 32
8 34
8 35
8 36
8 38
8 39
8 40
8 42
8 45
8 49
8 50
8 51
8 53
8 54
8 55
8 58
8 61
8 62
8 64
8 65
8 67
8 70
8 72
8 73
8 75
8 78
8 79
8 80
8 81
8 85
8 92
8 95
8 97
8 99
8 104
8 107
8 114
8 115
9 10
9 12
9 17
9 20
9 21
9 22
9 24
9 25
9 27
9 28
9 29
9 31
9 34
9 37
9 43
9 44
9 45
9 46
9 49
9 50
9 51
9 53
9 54
9 56
9 58
9 59
9 60
9 62
9 63
9 64
9 67
9 68
9 71
9 72
9 73
9 75
9 76
9 77
9 78
9 79
9 81
9 88
9 89
9 91
9 92
9 93
9 94
9 95
9 96
9 97
9 99
9 100
9 101
9 103
9 106
9 107
9 108
9 109
9 112
9 115
9 118
9 119
10 11
10 12
10 13
10 14
10 15
10 16
10 18
10 19
10 20
10 25
10 26
10 28
10 30
10 31
10 32
10 33
10 35
10 38
10 39
10 41
10 42
10 44
10 46
10 47
10 51
10 52
10 55
10 57
10 58
10 59
10 62
10 66
10 70
10 71
10 74
10 77
10 81
10 86
10 87
10 93
10 94
10 95
10 101
10 103
10 107
10 109
10 113
10 116
10 117
10 119
11 18
11 19
11 21
11 22
11 23
11 26
11 27
11 29
11 34
11 37
11 41
11 47
11 49
11 50
11 54
11 56
11 60
11 62
11 65
11 68
11 69
11 70
11 72
11 73
11 74
11 75
11 77
11 80
11 81
11 83
11 84
11 86
11 87
11 92
11 93
11 96
11 97
11 98
11 99
11 100
11 105
11 106
11 107
11 109
11 110
11 111
11 113
11 119
12 13
12 14
12 17
12 19
12 20
12 26
12 27
12 28
12 30
12 31
12 33
12 35
12 37
12 38
12 39
12 42
12 44
12 45
12 47
12 48
12 50
12 52
12 53
12 58
12 59
12 61
12 62
12 65
12 66
12 68
12 69
12 71
12 73
12 74
12 75
12 76
12 79
12 81
12 82
12 86
12 88
12 89
12 90
12 91
12 92
12 96
12 98
12 100
12 102
12 103
12 104
12 107
12 109
12 112
12 114
12 116
12 119
13 15
13 19
13 22
13 23
13 25
13 26
13 27
13 32
13 33
13 34
13 39
13 40
13 42
13 45
13 46
13 49
13 52
13 53
13 54
13 55
13 56
13 59
13 61
13 62
13 63
13 66
13 67
13 68
13 69
13 71
13 74
13 75
13 76
13 81
13 85
13 87
13 88
13 89
13 91
13 95
13 96
13 98
13 100
13 105
13 107
13 108
13 109
13 112
13 114
13 118
13 119
14 15
14 16
14 18
14 21
14 22
14 24
14 25
14 26
14 28
14 30
14 32
14 33
14 34
14 35
14 39
14 44
14 45
14 48
14 51
14 53
14 54
14 58
14 59
14 60
14 61
14 62
14 64
14 65
14 66
14 67
14 69
14 71
14 72
14 73
14 74
14 77
14 80
14 83
14 84
14 86
14 89
14 92
14 97
14 99
14 101
14 104
14 107
14 109
14 110
14 113
14 114
14 116
14 117
14 119
15 16
15 17
15 18
15 19
15 21
15 24
15 25
15 27
15 28
15 29
15 30
15 33
15 37
15 38
15 39
15 42
15 43
15 45
15 48
15 49
15 50
15 51
15 53
15 54
15 55
15 59
15 60
15 61
15 62
15 64
15 65
15 72
15 73
15 74
15 75
15 77
15 78
15 79
15 83
15 84
15 87
15 88
15 90
15 91
15 94
15 95
15 97
15 99
15 100
15 101
15 104
15 106
15 107
15 108
15 113
15 117
15 119
16 19
16 20
16 22
16 23
16 28
16 29
16 31
16 32
16 33
16 34
16 35
16 36
16 37
16 39
16 40
16 44
16 46
16 47
16 50
16 52
16 55
16 56
16 58
16 59
16 60
16 62
16 63
16 64
16 65
16 66
16 71
16 72
16 73
16 75
16 76
16 79
16 80
16 82
16 83
16 84
16 85
16 87
16 89
16 92
16 96
16 98
16 100
16 101
16 102
16 103
16 106
16 107
16 111
16 112
16 113
16 114
16 118
16 119
17 21
17 22
17 23
17 24
17 25
17 26
17 27
17 28
17 30
17 32
17 35
17 36
17 39
17 42
17 45
17 49
17 53
17 54
17 59
17 60
17 61
17 63
17 65
17 66
17 68
17 70
17 71
17 72
17 75
17 77
17 78
17 79
17 80
17 85
17 86
17 87
17 89
17 90
17 91
17 92
17 94
17 98
17 105
17 106
17 107
17 108
17 109
17 111
17 114
18 19
18 21
18 23
18 24
18 26
18 28
18 31
18 32
18 33
18 39
18 41
18 42
18 44
18 45
18 46
18 49
18 50
18 53
18 54
18 57
18 58
18 60
18 61
18 63
18 65
18 66
18 72
18 75
18 81
18 83
18 85
18 86
18 87
18 88
18 89
18 91
18 92
18 94
18 96
18 97
18 104
18 105
18 108
18 109
18 110
18 111
18 114
18 115
18 116
18 117
18 118
19 22
19 24
19 26
19 27
19 32
19 33
19 35
19 36
19 37
19 40
19 41
19 43
19 46
19 47
19 49
19 50
19 51
19 56
19 57
19 59
19 60
19 61
19 63
19 68
19 70
19 73
19 74
19 75
19 79
19 80
19 81
19 82
19 85
19 86
19 87
19 89
19 90
19 92
19 94
19 96
19 98
19 99
19 106
19 107
19 108
19 109
19 110
19 112
19 113
19 114
19 116
19 117
19 118
20 23
20 25
20 26
20 27
20 28
20 30
20 31
20 34
20 36
20 37
20 39
20 40
20 41
20 47
20 49
20 52
20 56
20 59
20 60
20 61
20 65
20 67
20 68
20 70
20 73
20 75
20 77
20 79
20 80
20 83
20 84
20 85
20 87
20 88
20 90
20 93
20 95
20 96
20 98
20 99
20 100
20 101
20 104
20 105
20 107
20 108
20 110
20 111
20 115
20 117
21 23
21 33
21 36
21 38
21 39
21 41
21 43
21 44
21 45
21 53
21 54
21 55
21 59
21 63
21 64
21 65
21 66
21 69
21 70
21 71
21 72
21 73
21 76
21 77
21 79
21 81
21 82
21 85
21 86
21 87
21 89
21 90
21 91
21 92
21 93
21 94
21 95
21 96
21 99
21 100
21 101
21 102
21 103
21 104
21 107
21 109
21 110
21 116
21 118
22 23
22 24
22 26
22 27
22 29
22 30
22 32
22 33
22 35
22 39
22 40
22 41
22 45
22 51
22 53
22 54
22 56
22 57
22 60
22 62
22 63
22 64
22 66
22 68
22 69
22 73
22 76
22 77
22 80
22 81
22 82
22 83
22 84
22 85
22 88
22 89
22 91
22 93
22 94
22 96
22 98
22 101
22 104
22 107
22 108
22 109
22 112
22 113
22 115
22 116
22 117
23 25
23 26
23 29
23 30
23 37
23 41
23 42
23 44
23 45
23 47
23 48
23 49
23 50
23 54
23 55
23 56
23 58
23 59
23 61
23 64
23 67
23 70
23 71
23 74
23 75
23 76
23 77
23 78
23 83
23 85
23 86
23 89
23 92
23 94
23 97
23 100
23 101
23 104
23 108
24 25
24 26
24 28
24 31
24 32
24 34
24 35
24 36
24 40
24 42
24 45
24 46
24 47
24 48
24 52
24 54
24 55
24 56
24 58
24 59
24 62
24 66
24 67
24 70
24 73
24 74
24 75
24 76
24 78
24 80
24 82
24 84
24 85
24 86
24 89
24 90
24 91
24 93
24 94
24 96
24 98
24 105
24 106
24 108
24 110
24 112
24 115
24 116
24 117
24 119
25 26
25 29
25 31
25 32
25 35
25 38
25 39
25 45
25 46
25 47
25 50
25 54
25 55
25 58
25 59
25 61
25 64
25 65
25 69
25 71
25 74
25 76
25 78
25 83
25 86
25 87
25 92
25 93
25 96
25 98
25 102
25 103
25 104
25 106
25 107
25 111
25 113
25 114
25 116
25 117
25 118
25 119
26 28
26 30
26 34
26 38
26 39
26 40
26 42
26 45
26 46
26 47
26 51
26 55
26 56
26 58
26 59
26 62
26 65
26 67
26 68
26 69
26 70
26 71
26 73
26 75
26 79
26 80
26 83
26 84
26 88
26 96
26 99
26 100
26 101
26 102
26 106
26 107
26 108
26 109
26 110
26 113
26 118
26 119
27 29
27 30
27 31
27 33
27 34
27 35
27 36
27 37
27 38
27 43
27 45
27 46
27 51
27 52
27 54
27 57
27 62
27 66
27 68
27 72
27 75
27 76
27 78
27 79
27 82
27 84
27 87
27 89
27 90
27 93
27 94
27 95
27 97
27 99
27 100
27 101
27 103
27 105
27 106
27 107
27 109
27 111
27 114
27 115
27 117
27 119
28 29
28 33
28 34
28 37
28 38
28 42
28 43
28 44
28 45
28 46
28 47
28 49
28 52
28 53
28 56
28 58
28 59
28 60
28 67
28 69
28 70
28 71
28 73
28 74
28 75
28 76
28 78
28 83
28 84
28 85
28 86
28 89
28 92
28 93
28 94
28 97
28 98
28 100
28 103
28 104
28 107
28 110
28 114
28 115
29 30
29 31
29 33
29 36
29 43
29 45
29 51
29 55
29 56
29 63
29 65
29 68
29 69
29 70
29 71
29 74
29 75
29 78
29 79
29 81
29 85
29 86
29 88
29 92
29 93
29 97
29 98
29 99
29 100
29 101
29 102
29 103
29 107
29 108
29 109
29 112
29 116
29 117
29 119
30 32
30 34
30 35
30 36
30 41
30 44
30 46
30 47
30 49
30 50
30 51
30 52
30 53
30 56
30 57
30 58
30 65
30 66
30 67
30 68
30 69
30 74
30 76
30 78
30 80
30 81
30 82
30 83
30 84
30 87
30 89
30 91
30 92
30 95
30 97
30 98
30 100
30 101
30 105
30 106
30 108
30 112
30 113
30 114
30 117
30 119
31 34
31 37
31 39
31 41
31 42
31 43
31 49
31 50
31 51
31 52
31 55
31 57
31 62
31 63
31 64
31 68
31 71
31 73
31 74
31 76
31 77
31 79
31 81
31 83
31 85
31 86
31 87
31 88
31 97
31 99
31 101
31 104
31 106
31 107
31 110
31 113
31 114
31 115
31 118
31 119
32 33
32 36
32 37
32 38
32 40
32 41
32 42
32 43
32 45
32 46
32 49
32 50
32 51
32 55
32 56
32 57
32 58
32 60
32 61
32 64
32 67
32 70
32 71
32 74
32 76
32 77
32 79
32 80
32 81
32 84
32 86
32 88
32 89
32 90
32 97
32 98
32 104
32 107
32 108
32 109
32 110
32 115
32 116
32 117
32 118
33 34
33 39
33 40
33 42
33 43
33 44
33 48
33 49
33 52
33 54
33 55
33 56
33 57
33 61
33 63
33 66
33 67
33 68
33 69
33 70
33 74
33 77
33 78
33 79
33 80
33 81
33 82
33 84
33 86
33 91
33 93
33 94
33 98
33 100
33 103
33 105
33 106
33 108
33 110
33 112
33 113
33 119
34 35
34 39
34 40
34 41
34 44
34 45
34 46
34 47
34 48
34 51
34 52
34 54
34 58
34 59
34 60
34 61
34 62
34 64
34 65
34 68
34 70
34 71
34 72
34 74
34 79
34 80
34 81
34 82
34 83
34 86
34 87
34 92
34 94
34 96
34 98
34 99
34 100
34 103
34 104
34 105
34 106
34 111
34 115
34 118
34 119
35 36
35 38
35 41
35 44
35 46
35 47
35 48
35 49
35 51
35 52
35 53
35 54
35 61
35 62
35 63
35 65
35 66
35 68
35 69
35 73
35 74
35 75
35 76
35 78
35 80
35 82
35 83
35 85
35 87
35 88
35 91
35 94
35 97
35 99
35 100
35 104
35 107
35 108
35 110
35 111
35 114
35 115
36 37
36 38
36 40
36 42
36 43
36 45
36 48
36 49
36 50
36 52
36 54
36 55
36 57
36 61
36 65
36 67
36 68
36 69
36 70
36 72
36 75
36 77
36 78
36 80
36 82
36 83
36 84
36 87
36 88
36 89
36 90
36 91
36 92
36 93
36 95
36 98
36 99
36 101
36 102
36 104
36 105
36 106
36 107
36 111
36 112
36 115
36 116
36 118
36 119
37 39
37 40
37 42
37 45
37 46
37 49
37 53
37 59
37 62
37 63
37 71
37 74
37 75
37 76
37 82
37 84
37 85
37 87
37 88
37 89
37 91
37 96
37 98
37 99
37 100
37 102
37 104
37 108
37 109
37 112
37 113
37 116
37 118
37 119
38 41
38 42
38 43
38 44
38 47
38 50
38 51
38 53
38 54
38 55
38 57
38 58
38 59
38 60
38 61
38 62
38 63
38 64
38 66
38 67
38 68
38 69
38 71
38 72
38 73
38 76
38 77
38 78
38 84
38 87
38 89
38 90
38 91
38 93
38 94
38 99
38 100
38 104
38 105
38 107
38 110
38 111
38 113
38 116
38 117
38 119
39 46
39 47
39 48
39 49
39 50
39 56
39 57
39 59
39 60
39 62
39 63
39 66
39 68
39 70
39 71
39 75
39 76
39 78
39 79
39 81
39 83
39 84
39 85
39 86
39 88
39 91
39 92
39 94
39 97
39 98
39 101
39 102
39 103
39 106
39 111
39 112
39 113
39 115
39 116
39 117
39 118
39 119
40 41
40 42
40 44
40 45
40 46
40 48
40 49
40 50
40 51
40 58
40 61
40 62
40 63
40 65
40 66
40 67
40 68
40 72
40 73
40 75
40 76
40 77
40 78
40 79
40 80
40 81
40 87
40 89
40 94
40 98
40 100
40 104
40 106
40 107
40 108
40 110
40 111
40 114
40 115
40 117
40 118
40 119
41 44
41 48
41 49
41 50
41 53
41 54
41 55
41 56
41 57
41 58
41 61
41 63
41 64
41 65
41 66
41 68
41 69
41 71
41 72
41 73
41 74
41 76
41 77
41 87
41 88
41 93
41 94
41 96
41 98
41 99
41 104
41 105
41 106
41 109
41 114
41 115
41 117
41 118
42 45
42 46
42 48
42 49
42 52
42 57
42 58
42 60
42 63
42 65
42 66
42 67
42 68
42 69
42 70
42 73
42 74
42 76
42 77
42 78
42 79
42 81
42 84
42 85
42 86
42 89
42 90
42 92
42 93
42 94
42 95
42 97
42 100
42 101
42 102
42 103
42 104
42 105
42 106
42 107
42 109
42 113
42 114
42 117
42 119
43 44
43 45
43 46
43 47
43 49
43 54
43 56
43 57
43 59
43 62
43 65
43 67
43 69
43 70
43 72
43 74
43 75
43 76
43 77
43 78
43 79
43 82
43 85
43 87
43 88
43 90
43 91
43 92
43 94
43 95
43 102
43 104
43 105
43 106
43 108
43 109
43 111
43 114
43 115
43 116
43 117
43 118
44 45
44 47
44 50
44 53
44 55
44 56
44 57
44 61
44 62
44 66
44 69
44 76
44 78
44 80
44 81
44 84
44 85
44 86
44 87
44 88
44 89
44 91
44 94
44 96
44 97
44 98
44 99
44 103
44 111
44 113
44 115
44 118
44 119
45 46
45 52
45 55
45 56
45 59
45 60
45 61
45 62
45 63
45 68
45 72
45 73
45 75
45 77
45 79
45 84
45 89
45 90
45 91
45 92
45 96
45 97
45 98
45 102
45 104
45 105
45 106
45 107
45 108
45 109
45 110
45 113
45 114
45 115
45 116
45 118
46 47
46 48
46 52
46 54
46 55
46 56
46 57
46 58
46 59
46 60
46 64
46 65
46 66
46 69
46 73
46 75
46 76
46 77
46 78
46 79
46 80
46 82
46 83
46 84
46 87
46 89
46 90
46 92
46 94
46 96
46 99
46 100
46 102
46 107
46 108
46 110
46 111
46 114
46 117
47 48
47 49
47 51
47 54
47 55
47 61
47 62
47 63
47 64
47 66
47 69
47 74
47 75
47 76
47 79
47 80
47 82
47 83
47 85
47 87
47 88
47 91
47 93
47 94
47 95
47 97
47 98
47 99
47 108
47 109
47 112
47 114
47 115
47 116
47 118
47 119
48 49
48 50
48 51
48 57
48 59
48 60
48 63
48 67
48 68
48 71
48 72
48 73
48 76
48 79
48 81
48 83
48 85
48 90
48 91
48 95
48 98
48 99
48 100
48 105
48 106
48 107
48 111
48 112
48 116
48 119
49 51
49 52
49 53
49 55
49 56
49 58
49 62
49 64
49 69
49 72
49 73
49 74
49 76
49 77
49 79
49 80
49 85
49 86
49 90
49 91
49 93
49 96
49 97
49 98
49 99
49 100
49 101
49 104
49 107
49 109
49 113
49 117
49 118
49 119
50 51
50 52
50 53
50 54
50 56
50 58
50 64
50 65
50 72
50 75
50 76
50 81
50 82
50 84
50 85
50 86
50 88
50 91
50 92
50 93
50 94
50 96
50 100
50 102
50 104
50 105
50 106
50 107
50 109
50 110
50 111
50 114
50 116
50 119
51 57
51 59
51 62
51 64
51 65
51 68
51 70
51 73
51 75
51 76
51 77
51 78
51 79
51 80
51 84
51 85
51 88
51 90
51 92
51 93
51 98
51 99
51 102
51 103
51 104
51 105
51 106
51 107
51 109
51 111
51 113
51 115
51 116
51 118
51 119
52 53
52 55
52 56
52 59
52 63
52 68
52 71
52 73
52 76
52 80
52 82
52 83
52 87
52 88
52 90
52 92
52 94
52 95
52 96
52 97
52 99
52 100
52 102
52 103
52 108
52 112
52 113
52 114
52 115
52 117
52 118
53 54
53 57
53 58
53 59
53 60
53 62
53 64
53 65
53 69
53 70
53 71
53 73
53 74
53 75
53 78
53 79
53 80
53 82
53 83
53 84
53 85
53 87
53 89
53 93
53 98
53 102
53 103
53 106
53 108
53 111
53 112
53 113
53 114
53 115
53 116
53 117
53 118
54 58
54 65
54 68
54 69
54 70
54 71
54 74
54 75
54 76
54 77
54 78
54 79
54 80
54 81
54 82
54 84
54 87
54 90
54 92
54 95
54 97
54 100
54 101
54 102
54 103
54 108
54 111
54 113
54 116
54 117
54 119
55 57
55 58
55 62
55 63
55 66
55 67
55 69
55 70
55 71
55 72
55 74
55 75
55 81
55 82
55 83
55 84
55 87
55 88
55 90
55 92
55 93
55 94
55 95
55 96
55 98
55 101
55 102
55 104
55 106
55 107
55 108
55 111
55 114
55 116
55 117
55 119
56 58
56 60
56 62
56 65
56 67
56 68
56 69
56 71
56 74
56 75
56 76
56 77
56 80
56 81
56 82
56 83
56 84
56 85
56 89
56 90
56 91
56 92
56 94
56 99
56 107
56 108
56 109
56 110
56 111
56 112
56 117
56 118
56 119
57 58
57 59
57 61
57 62
57 63
57 65
57 66
57 69
57 72
57 75
57 76
57 77
57 78
57 79
57 80
57 82
57 87
57 90
57 92
57 94
57 96
57 97
57 99
57 100
57 101
57 102
57 105
57 106
57 108
57 113
57 114
57 116
57 119
58 61
58 64
58 66
58 72
58 73
58 77
58 81
58 82
58 88
58 92
58 95
58 97
58 98
58 99
58 100
58 102
58 104
58 106
58 108
58 110
58 111
58 112
58 113
58 114
58 115
58 117
59 62
59 63
59 65
59 66
59 70
59 72
59 73
59 74
59 75
59 76
59 77
59 80
59 81
59 84
59 88
59 89
59 92
59 94
59 95
59 96
59 97
59 98
59 99
59 101
59 104
59 109
59 110
59 111
59 113
59 119
60 64
60 65
60 66
60 67
60 71
60 72
60 73
60 74
60 75
60 77
60 80
60 82
60 84
60 88
60 91
60 92
60 93
60 94
60 95
60 97
60 100
60 101
60 102
60 103
60 106
60 108
60 114
60 118
60 119
61 62
61 63
61 65
61 66
61 67
61 68
61 69
61 71
61 73
61 75
61 76
61 78
61 80
61 82
61 83
61 84
61 87
61 88
61 90
61 94
61 95
61 96
61 100
61 102
61 103
61 107
61 108
61 109
61 111
61 114
61 115
61 117
61 119
62 63
62 64
62 67
62 68
62 70
62 71
62 73
62 74
62 75
62 77
62 78
62 82
62 88
62 89
62 94
62 95
62 98
62 99
62 102
62 104
62 105
62 106
62 107
62 110
62 111
62 114
62 116
62 117
63 64
63 65
63 67
63 69
63 70
63 72
63 75
63 77
63 79
63 80
63 81
63 82
63 84
63 86
63 87
63 90
63 93
63 94
63 95
63 96
63 97
63 98
63 99
63 100
63 103
63 105
63 109
63 111
63 114
63 115
63 119
64 65
64 67
64 68
64 71
64 72
64 74
64 75
64 77
64 80
64 83
64 88
64 89
64 91
64 93
64 95
64 97
64 99
64 101
64 102
64 103
64 104
64 105
64 107
64 109
64 111
64 117
65 66
65 67
65 68
65 71
65 74
65 76
65 78
65 79
65 80
65 84
65 86
65 88
65 89
65 91
65 92
65 94
65 96
65 97
65 101
65 102
65 105
65 107
65 108
65 109
65 111
65 112
65 114
65 117
65 118
65 119
66 67
66 68
66 69
66 70
66 71
66 72
66 76
66 77
66 78
66 79
66 81
66 82
66 84
66 85
66 88
66 89
66 91
66 92
66 95
66 97
66 99
66 103
66 104
66 111
66 113
66 116
66 117
66 118
67 72
67 75
67 76
67 78
67 80
67 84
67 87
67 88
67 92
67 93
67 94
67 96
67 98
67 100
67 104
67 108
67 110
67 112
67 113
67 115
67 116
67 119
68 71
68 76
68 79
68 81
68 82
68 84
68 85
68 86
68 88
68 91
68 95
68 96
68 97
68 99
68 100
68 101
68 102
68 103
68 105
68 109
68 112
68 114
68 115
68 117
68 119
69 72
69 73
69 76
69 77
69 83
69 84
69 85
69 86
69 87
69 88
69 92
69 99
69 100
69 101
69 104
69 106
69 107
69 108
69 110
69 112
69 113
69 116
69 118
69 119
70 72
70 73
70 74
70 75
70 76
70 77
70 83
70 86
70 88
70 92
70 93
70 97
70 99
70 100
70 102
70 104
70 109
70 110
70 113
70 114
71 73
71 76
71 77
71 78
71 81
71 84
71 86
71 95
71 98
71 100
71 102
71 103
71 107
71 111
71 113
71 116
71 118
71 119
72 73
72 75
72 77
72 79
72 81
72 83
72 85
72 87
72 88
72 89
72 94
72 97
72 98
72 100
72 103
72 105
72 109
72 110
72 111
72 113
72 114
72 119
73 75
73 76
73 77
73 81
73 82
73 85
73 87
73 88
73 94
73 95
73 97
73 102
73 103
73 106
73 109
73 111
73 112
73 113
73 114
73 116
73 118
73 119
74 76
74 78
74 79
74 81
74 82
74 84
74 85
74 86
74 87
74 88
74 91
74 95
74 97
74 98
74 99
74 101
74 104
74 108
74 109
74 112
74 114
74 116
74 117
75 79
75 82
75 84
75 86
75 87
75 88
75 89
75 91
75 92
75 93
75 99
75 104
75 105
75 107
75 111
75 112
75 116
75 118
75 119
76 83
76 84
76 86
76 87
76 88
76 89
76 92
76 93
76 95
76 96
76 98
76 100
76 101
76 103
76 104
76 108
76 110
76 113
76 116
76 117
76 119
77 79
77 80
77 81
77 82
77 84
77 85
77 89
77 90
77 91
77 93
77 97
77 99
77 105
77 107
77 108
77 109
77 110
77 112
77 113
77 115
77 119
78 81
78 89
78 90
78 91
78 92
78 93
78 94
78 95
78 96
78 97
78 98
78 100
78 101
78 104
78 105
78 108
78 109
78 110
78 111
78 113
78 114
78 116
78 117
78 118
78 119
79 82
79 83
79 84
79 89
79 90
79 92
79 93
79 95
79 96
79 98
79 99
79 101
79 103
79 107
79 108
79 111
79 112
79 113
79 115
79 116
80 81
80 87
80 88
80 90
80 91
80 93
80 95
80 97
80 99
80 100
80 104
80 108
80 109
80 114
80 115
80 117
80 118
80 119
81 83
81 84
81 85
81 86
81 88
81 89
81 92
81 93
81 94
81 96
81 99
81 103
81 104
81 106
81 110
81 112
81 114
81 117
81 118
82 83
82 84
82 86
82 88
82 89
82 91
82 93
82 95
82 96
82 98
82 101
82 104
82 106
82 107
82 108
82 111
82 114
82 118
83 86
83 87
83 88
83 89
83 91
83 92
83 93
83 94
83 96
83 98
83 99
83 100
83 101
83 102
83 103
83 106
83 108
83 112
83 113
83 116
83 117
83 118
84 89
84 92
84 93
84 95
84 97
84 98
84 99
84 100
84 102
84 103
84 104
84 106
84 107
84 111
84 112
84 113
84 114
84 116
84 117
84 118
84 119
85 86
85 88
85 90
85 91
85 93
85 98
85 100
85 102
85 104
85 107
85 109
85 111
85 112
85 113
85 115
85 118
86 89
86 90
86 91
86 94
86 95
86 98
86 104
86 105
86 106
86 108
86 109
86 110
86 113
86 114
86 118
87 88
87 92
87 93
87 95
87 96
87 97
87 99
87 100
87 101
87 103
87 104
87 106
87 110
87 111
87 113
87 116
87 117
87 118
87 119
88 89
88 92
88 93
88 94
88 99
88 101
88 103
88 105
88 107
88 109
88 110
88 113
88 114
88 115
88 116
88 118
89 92
89 94
89 97
89 98
89 99
89 102
89 103
89 107
89 109
89 110
89 112
89 119
90 91
90 92
90 93
90 94
90 97
90 99
90 100
90 101
90 102
90 103
90 104
90 105
90 107
90 108
90 110
90 111
90 112
90 114
90 115
90 117
90 119
91 92
91 93
91 94
91 95
91 99
91 100
91 101
91 102
91 103
91 105
91 107
91 108
91 112
91 113
91 115
91 116
91 117
91 118
92 95
92 102
92 104
92 105
92 106
92 109
92 112
92 114
92 115
92 118
92 119
93 94
93 95
93 97
93 99
93 100
93 101
93 103
93 106
93 107
93 108
93 109
93 110
93 114
93 118
94 95
94 96
94 99
94 100
94 101
94 103
94 104
94 105
94 106
94 109
94 111
94 113
94 117
94 118
95 97
95 103
95 104
95 105
95 107
95 108
95 109
95 110
95 111
95 112
95 113
95 116
96 97
96 98
96 100
96 101
96 102
96 103
96 104
96 108
96 109
96 110
96 111
96 112
96 117
96 118
97 100
97 102
97 103
97 104
97 105
97 107
97 109
97 110
97 112
97 116
97 118
97 119
98 101
98 102
98 111
98 112
98 114
98 115
98 116
98 117
98 119
99 101
99 102
99 103
99 104
99 109
99 110
99 113
99 116
99 117
99 118
99 119
100 101
100 102
100 108
100 109
100 110
100 111
100 114
100 116
100 117
100 118
101 104
101 108
101 110
101 115
101 116
101 117
101 118
102 107
102 109
102 110
102 111
102 118
102 119
103 104
103 105
103 107
103 108
103 111
103 113
103 118
104 105
104 107
104 108
104 110
104 112
104 113
104 115
104 117
105 107
105 113
105 114
105 116
105 119
106 107
106 108
106 109
106 111
106 112
106 113
106 116
106 117
107 110
107 111
107 112
107 113
107 114
107 116
107 118
107 119
108 111
108 114
108 116
108 117
109 110
109 112
109 113
109 116
109 117
109 118
110 111
110 112
110 114
110 115
110 116
110 117
110 119
111 114
111 115
112 113
112 114
112 118
113 114
113 115
113 117
113 118
114 115
114 116
114 118
116 118
116 119
118 119
17 40
66 110
4 26
10 25
75 109
45 90
39 57
37 74
3 34
85 98
24 56
23 103
46 97
88 119
42 51
15 58
69 99
7 31
22 29
48 73
38 105
6 27
91 94
60 114
0 117
84 86
8 35
63 116
59 80
107 111
43 49
1 55
19 118
20 108
65 96
14 30
2 52
13 79
16 106
83 92
32 93
9 78
62 100
47 77
41 95
33 82
50 71
28 36
21 89
44 76
64 81
11 18
53 54
61 70
12 102
67 112
68 115
104 113
72 87
5 101
